c File: flat50_3_0.col
c
c SOURCE: Joseph Culberson (joe@cs.ualberta.ca)
c DESCRIPTION: Quasi-random coloring problem
c              generated with flatness = 0
c                             probability = 0.139
c                             known coloring = 3
c                             random seed = 1296
c              Creation Date:  Tue Jun  9 12:05:53 1998
c Maximum degree = 8 Minimum degree = 1
c p edge 50 115
c cnf created by edge2cnf
p cnf 150 545
-1 -2 0
-1 -3 0
-2 -3 0
1 2 3 0
-4 -5 0
-4 -6 0
-5 -6 0
4 5 6 0
-7 -8 0
-7 -9 0
-8 -9 0
7 8 9 0
-10 -11 0
-10 -12 0
-11 -12 0
10 11 12 0
-13 -14 0
-13 -15 0
-14 -15 0
13 14 15 0
-16 -17 0
-16 -18 0
-17 -18 0
16 17 18 0
-19 -20 0
-19 -21 0
-20 -21 0
19 20 21 0
-22 -23 0
-22 -24 0
-23 -24 0
22 23 24 0
-25 -26 0
-25 -27 0
-26 -27 0
25 26 27 0
-28 -29 0
-28 -30 0
-29 -30 0
28 29 30 0
-31 -32 0
-31 -33 0
-32 -33 0
31 32 33 0
-34 -35 0
-34 -36 0
-35 -36 0
34 35 36 0
-37 -38 0
-37 -39 0
-38 -39 0
37 38 39 0
-40 -41 0
-40 -42 0
-41 -42 0
40 41 42 0
-43 -44 0
-43 -45 0
-44 -45 0
43 44 45 0
-46 -47 0
-46 -48 0
-47 -48 0
46 47 48 0
-49 -50 0
-49 -51 0
-50 -51 0
49 50 51 0
-52 -53 0
-52 -54 0
-53 -54 0
52 53 54 0
-55 -56 0
-55 -57 0
-56 -57 0
55 56 57 0
-58 -59 0
-58 -60 0
-59 -60 0
58 59 60 0
-61 -62 0
-61 -63 0
-62 -63 0
61 62 63 0
-64 -65 0
-64 -66 0
-65 -66 0
64 65 66 0
-67 -68 0
-67 -69 0
-68 -69 0
67 68 69 0
-70 -71 0
-70 -72 0
-71 -72 0
70 71 72 0
-73 -74 0
-73 -75 0
-74 -75 0
73 74 75 0
-76 -77 0
-76 -78 0
-77 -78 0
76 77 78 0
-79 -80 0
-79 -81 0
-80 -81 0
79 80 81 0
-82 -83 0
-82 -84 0
-83 -84 0
82 83 84 0
-85 -86 0
-85 -87 0
-86 -87 0
85 86 87 0
-88 -89 0
-88 -90 0
-89 -90 0
88 89 90 0
-91 -92 0
-91 -93 0
-92 -93 0
91 92 93 0
-94 -95 0
-94 -96 0
-95 -96 0
94 95 96 0
-97 -98 0
-97 -99 0
-98 -99 0
97 98 99 0
-100 -101 0
-100 -102 0
-101 -102 0
100 101 102 0
-103 -104 0
-103 -105 0
-104 -105 0
103 104 105 0
-106 -107 0
-106 -108 0
-107 -108 0
106 107 108 0
-109 -110 0
-109 -111 0
-110 -111 0
109 110 111 0
-112 -113 0
-112 -114 0
-113 -114 0
112 113 114 0
-115 -116 0
-115 -117 0
-116 -117 0
115 116 117 0
-118 -119 0
-118 -120 0
-119 -120 0
118 119 120 0
-121 -122 0
-121 -123 0
-122 -123 0
121 122 123 0
-124 -125 0
-124 -126 0
-125 -126 0
124 125 126 0
-127 -128 0
-127 -129 0
-128 -129 0
127 128 129 0
-130 -131 0
-130 -132 0
-131 -132 0
130 131 132 0
-133 -134 0
-133 -135 0
-134 -135 0
133 134 135 0
-136 -137 0
-136 -138 0
-137 -138 0
136 137 138 0
-139 -140 0
-139 -141 0
-140 -141 0
139 140 141 0
-142 -143 0
-142 -144 0
-143 -144 0
142 143 144 0
-145 -146 0
-145 -147 0
-146 -147 0
145 146 147 0
-148 -149 0
-148 -150 0
-149 -150 0
148 149 150 0
-58 -1 0
-59 -2 0
-60 -3 0
-64 -1 0
-65 -2 0
-66 -3 0
-70 -1 0
-71 -2 0
-72 -3 0
-97 -1 0
-98 -2 0
-99 -3 0
-142 -1 0
-143 -2 0
-144 -3 0
-55 -4 0
-56 -5 0
-57 -6 0
-64 -4 0
-65 -5 0
-66 -6 0
-67 -4 0
-68 -5 0
-69 -6 0
-106 -4 0
-107 -5 0
-108 -6 0
-64 -7 0
-65 -8 0
-66 -9 0
-67 -7 0
-68 -8 0
-69 -9 0
-94 -7 0
-95 -8 0
-96 -9 0
-103 -7 0
-104 -8 0
-105 -9 0
-118 -7 0
-119 -8 0
-120 -9 0
-52 -10 0
-53 -11 0
-54 -12 0
-118 -10 0
-119 -11 0
-120 -12 0
-127 -10 0
-128 -11 0
-129 -12 0
-145 -10 0
-146 -11 0
-147 -12 0
-73 -13 0
-74 -14 0
-75 -15 0
-91 -13 0
-92 -14 0
-93 -15 0
-97 -13 0
-98 -14 0
-99 -15 0
-112 -13 0
-113 -14 0
-114 -15 0
-106 -16 0
-107 -17 0
-108 -18 0
-121 -16 0
-122 -17 0
-123 -18 0
-127 -16 0
-128 -17 0
-129 -18 0
-139 -16 0
-140 -17 0
-141 -18 0
-58 -19 0
-59 -20 0
-60 -21 0
-100 -19 0
-101 -20 0
-102 -21 0
-145 -19 0
-146 -20 0
-147 -21 0
-52 -22 0
-53 -23 0
-54 -24 0
-55 -22 0
-56 -23 0
-57 -24 0
-85 -22 0
-86 -23 0
-87 -24 0
-109 -22 0
-110 -23 0
-111 -24 0
-115 -22 0
-116 -23 0
-117 -24 0
-148 -22 0
-149 -23 0
-150 -24 0
-61 -25 0
-62 -26 0
-63 -27 0
-142 -25 0
-143 -26 0
-144 -27 0
-58 -28 0
-59 -29 0
-60 -30 0
-67 -28 0
-68 -29 0
-69 -30 0
-76 -28 0
-77 -29 0
-78 -30 0
-100 -28 0
-101 -29 0
-102 -30 0
-106 -28 0
-107 -29 0
-108 -30 0
-118 -28 0
-119 -29 0
-120 -30 0
-136 -28 0
-137 -29 0
-138 -30 0
-55 -31 0
-56 -32 0
-57 -33 0
-88 -31 0
-89 -32 0
-90 -33 0
-112 -31 0
-113 -32 0
-114 -33 0
-121 -31 0
-122 -32 0
-123 -33 0
-130 -31 0
-131 -32 0
-132 -33 0
-139 -31 0
-140 -32 0
-141 -33 0
-52 -34 0
-53 -35 0
-54 -36 0
-67 -34 0
-68 -35 0
-69 -36 0
-109 -34 0
-110 -35 0
-111 -36 0
-130 -34 0
-131 -35 0
-132 -36 0
-61 -37 0
-62 -38 0
-63 -39 0
-109 -37 0
-110 -38 0
-111 -39 0
-121 -37 0
-122 -38 0
-123 -39 0
-64 -40 0
-65 -41 0
-66 -42 0
-70 -40 0
-71 -41 0
-72 -42 0
-82 -40 0
-83 -41 0
-84 -42 0
-97 -40 0
-98 -41 0
-99 -42 0
-109 -40 0
-110 -41 0
-111 -42 0
-130 -40 0
-131 -41 0
-132 -42 0
-58 -43 0
-59 -44 0
-60 -45 0
-61 -43 0
-62 -44 0
-63 -45 0
-91 -43 0
-92 -44 0
-93 -45 0
-94 -43 0
-95 -44 0
-96 -45 0
-106 -43 0
-107 -44 0
-108 -45 0
-118 -43 0
-119 -44 0
-120 -45 0
-121 -43 0
-122 -44 0
-123 -45 0
-136 -43 0
-137 -44 0
-138 -45 0
-82 -46 0
-83 -47 0
-84 -48 0
-91 -46 0
-92 -47 0
-93 -48 0
-97 -46 0
-98 -47 0
-99 -48 0
-130 -46 0
-131 -47 0
-132 -48 0
-139 -46 0
-140 -47 0
-141 -48 0
-112 -49 0
-113 -50 0
-114 -51 0
-121 -52 0
-122 -53 0
-123 -54 0
-142 -52 0
-143 -53 0
-144 -54 0
-127 -55 0
-128 -56 0
-129 -57 0
-103 -58 0
-104 -59 0
-105 -60 0
-142 -58 0
-143 -59 0
-144 -60 0
-148 -58 0
-149 -59 0
-150 -60 0
-103 -64 0
-104 -65 0
-105 -66 0
-121 -64 0
-122 -65 0
-123 -66 0
-103 -67 0
-104 -68 0
-105 -69 0
-106 -67 0
-107 -68 0
-108 -69 0
-112 -67 0
-113 -68 0
-114 -69 0
-115 -67 0
-116 -68 0
-117 -69 0
-112 -70 0
-113 -71 0
-114 -72 0
-124 -70 0
-125 -71 0
-126 -72 0
-112 -73 0
-113 -74 0
-114 -75 0
-118 -73 0
-119 -74 0
-120 -75 0
-130 -73 0
-131 -74 0
-132 -75 0
-145 -73 0
-146 -74 0
-147 -75 0
-136 -76 0
-137 -77 0
-138 -78 0
-121 -79 0
-122 -80 0
-123 -81 0
-133 -79 0
-134 -80 0
-135 -81 0
-142 -79 0
-143 -80 0
-144 -81 0
-142 -82 0
-143 -83 0
-144 -84 0
-121 -85 0
-122 -86 0
-123 -87 0
-133 -85 0
-134 -86 0
-135 -87 0
-136 -88 0
-137 -89 0
-138 -90 0
-109 -91 0
-110 -92 0
-111 -93 0
-118 -91 0
-119 -92 0
-120 -93 0
-127 -91 0
-128 -92 0
-129 -93 0
-148 -91 0
-149 -92 0
-150 -93 0
-124 -94 0
-125 -95 0
-126 -96 0
-109 -97 0
-110 -98 0
-111 -99 0
-115 -97 0
-116 -98 0
-117 -99 0
-124 -97 0
-125 -98 0
-126 -99 0
-136 -97 0
-137 -98 0
-138 -99 0
-103 -100 0
-104 -101 0
-105 -102 0
-112 -100 0
-113 -101 0
-114 -102 0
-148 -100 0
-149 -101 0
-150 -102 0
